NAME : mr65
COMMENT : 65-city problem (DISC)
TYPE : TSP
DIMENSION : 65
EDGE_WEIGHT_TYPE : EUC_2D
NODE_COORD_SECTION
1 22 28
2 4 90
3 29 68
4 18 32
5 31 15
6 17 5
7 70 68
8 78 17
9 52 10
10 24 63
11 24 13
12 51 95
13 14 47
14 57 94
15 49 54
16 68 61
17 74 2
18 17 60
19 11 76
20 93 40
21 23 63
22 11 36
23 80 25
24 11 19
25 46 47
26 11 19
27 54 33
28 45 24
29 18 47
30 99 98
31 67 51
32 64 80
33 56 41
34 3 18
35 11 66
36 35 27
37 6 39
38 56 64
39 81 86
40 38 7
41 94 80
42 31 100
43 42 80
44 22 25
45 42 47
46 10 44
47 88 82
48 34 26
49 94 84
50 65 29
51 7 89
52 46 84
53 70 28
54 68 35
55 5 59
56 73 90
57 89 22
58 4 6
59 82 17
60 11 28
61 96 51
62 60 22
63 54 22
64 36 6
65 29 99
EOF
